InboundTrucks  = 12;
OutboundTrucks = 8;
InboundDoors   = 4;
OutboundDoors  = 4;
ReleaseTime    = [25,58,14,22,0,80,80,37,29,51,26,51];
UnloadTime     = [37,34,21,40,40,25,24,23,27,20,27,38];
LoadTime       = [9,5,8,7,10,10,10,13];
TransferTime   = [| 0,0,49,31,0,0,0,38 | 0,0,0,0,49,0,0,22 | 0,0,0,0,40,34,46,40 | 0,17,15,0,29,0,50,42 | 35,0,31,0,35,0,0,0 | 0,24,0,10,48,38,29,22 | 0,0,37,0,41,0,0,0 | 0,0,48,0,24,12,32,48 | 38,0,0,0,0,0,30,35 | 21,11,37,0,0,25,0,10 | 15,25,32,22,25,41,0,17 | 26,0,10,31,0,0,0,0 |];
